8
Lattice="6.12 0.0 0.0 0.0 5.24 0.0 0.0 0.0 4.92" Properties=species:S:1:pos:R:3 id=101 pbc="T T T"
Li       1.04040000       1.31000000       4.82160000
Li       2.01960000       3.93000000       2.55840000
Li       5.07960000       3.93000000       0.09840000
P        0.48960000       1.31000000       2.26320000
O        0.55080000       1.31000000       0.78720000
O        5.14080000       1.31000000       2.80440000
O        1.16280000       0.10480000       2.75520000
O        1.16280000       2.51520000       2.75520000
