12
Lattice="5.12 0.0 0.0 0.0 5.12 0.0 0.0 0.0 5.12" Properties=species:S:1:pos:R:3 id=201 pbc="T T T"
Zr       0.00000000       0.00000000       0.00000000
Zr       2.56000000       2.56000000       0.00000000
Zr       2.56000000       0.00000000       2.56000000
Zr       0.00000000       2.56000000       2.56000000
O        1.28000000       1.28000000       1.28000000
O        3.84000000       1.28000000       1.28000000
O        1.28000000       3.84000000       1.28000000
O        3.84000000       3.84000000       1.28000000
O        1.28000000       1.28000000       3.84000000
O        3.84000000       1.28000000       3.84000000
O        1.28000000       3.84000000       3.84000000
O        3.84000000       3.84000000       3.84000000
